minizinc/sudoku_problems2/sudoku_p85.dzn
%
% sudoku_p85.dzn
% See http://www.hakank.org/minizinc/sudoku_gcc.mzn
% 
% This problem is problem 85 from
% Gecode's sudoku.cpp
% http://www.gecode.org/gecode-doc-latest/sudoku_8cpp-source.html
% 
x = array2d(1..n, 1..n, [   
% http://janko.at/Raetsel/Sudoku/597.a.htm
% 85
  _,  _,  6,  _,  _,  1,  _,  _,  4,  _,  _, 15,  3,  _, 10,  _,
  7, 14,  _,  _,  6, 16,  _,  3,  _,  _,  _,  _, 15, 12,  _,  _,
 11, 12,  3,  _,  _, 15, 13,  _,  6,  _,  9,  _, 16,  _,  _,  2,
  _,  _,  _,  _,  _,  4, 14,  _, 12, 16,  3,  _, 11,  _,  _,  _,
  1,  _, 14,  _,  _, 12,  _,  _,  _,  _,  _,  2,  _, 10,  _,  _,
  _,  _,  _, 10, 14,  6,  _,  _,  _,  4, 15,  _,  _,  9,  _,  3,
  _,  8,  _,  2,  _,  _,  3, 15,  _, 12,  _,  1,  _,  _,  _,  _,
  3,  4,  _,  _,  8,  _,  _,  _, 11,  5,  7,  _,  _, 14, 12,  _,
  _, 11,  9,  _,  _,  3, 12, 13,  _,  _,  _,  8,  _,  _, 14,  5,
  _,  _,  _,  _,  9,  _, 15,  _, 16, 10,  _,  _,  4,  _,  1,  _,
 10,  _,  4,  _,  _, 14,  2,  _,  _,  _,  6, 11, 12,  _,  _,  _,
  _,  _,  8,  _, 10,  _,  _,  _,  _,  _, 14,  _,  _,  7,  _, 11,
  _,  _,  _, 12,  _,  2, 10,  6,  _, 14, 11,  _,  _,  _,  _,  _,
 14,  _,  _,  8,  _,  9,  _,  5,  _,  3, 12,  _,  _,  6,  2, 16,
  _,  _, 11,  9,  _,  _,  _,  _,  2,  _, 16, 13,  _,  _,  5, 12,
  _,  3,  _,  5, 12,  _,  _, 14,  _,  _,  1,  _,  _,  4,  _,  _
]);

n = 16;


